9 
1 153 510 706 966 581 455 70 160 
153 1 422 664 997 598 507 197 311 
510 422 1 289 744 390 437 491 645 
706 664 289 1 491 265 410 664 804 
966 997 744 491 1 400 514 902 990 
581 598 390 265 400 1 168 522 634 
455 507 437 410 514 168 1 389 482 
70 197 491 664 902 522 389 1 154 
160 311 645 804 990 634 482 154 1 